# A dataset for the 0-1 knapsack problem retrieved from
# http://people.sc.fsu.edu/~jburkardt/datasets/knapsack_01/knapsack_01.html
#
# this is dataset P04, a set of 7 weights and profits for a knapsack of capacity 50
# (Optimal selection = 1001000)
#
# Licensed GNU LGPL3
# http://people.sc.fsu.edu/~jburkardt/txt/gnu_lgpl.txt
# 
# File format:
# <- (This is a comment)
# First non comment line = Max weight capacity
# Every next non comment line is a object with value and weight separated by a space
#
50
70 31
20 10
39 20
37 19
7 4
5 3
10 6
