# A dataset for the 0-1 knapsack problem retrieved from
# http://people.sc.fsu.edu/~jburkardt/datasets/knapsack_01/knapsack_01.html
#
# this is dataset P05, a set of 8 weights and profits for a knapsack of capacity 104
# (Optimal selection = 10111011)
#
# Licensed GNU LGPL3
# http://people.sc.fsu.edu/~jburkardt/txt/gnu_lgpl.txt
# 
# File format:
# <- (This is a comment)
# First non comment line = Max weight capacity
# Every next non comment line is a object with value and weight separated by a space
#
104
350 25
400 35
450 45
20 5
70 25
8 3
5 2
5 2
